objective value:                                  -69
t_x0                                                1 	(obj:-100)
t_y0_110                                            1 	(obj:1)
t_y0_140                                            1 	(obj:1)
t_y0_357                                            1 	(obj:1)
t_y0_387                                            1 	(obj:1)
t_y0_30                                             1 	(obj:1)
t_y0_301                                            1 	(obj:1)
t_y0_277                                            1 	(obj:1)
t_y0_441                                            1 	(obj:1)
t_y0_40                                             1 	(obj:1)
t_y0_217                                            1 	(obj:1)
t_y0_408                                            1 	(obj:1)
t_y0_130                                            1 	(obj:1)
t_y0_70                                             1 	(obj:1)
t_y0_15                                             1 	(obj:1)
t_y0_437                                            1 	(obj:1)
t_y0_371                                            1 	(obj:1)
t_y0_401                                            1 	(obj:1)
t_y0_191                                            1 	(obj:1)
t_y0_126                                            1 	(obj:1)
t_y0_529                                            1 	(obj:1)
t_y0_405                                            1 	(obj:1)
t_y0_487                                            1 	(obj:1)
t_y0_521                                            1 	(obj:1)
t_y0_523                                            1 	(obj:1)
t_y0_506                                            1 	(obj:1)
t_y0_117                                            1 	(obj:1)
t_y0_228                                            1 	(obj:1)
t_y0_419                                            1 	(obj:1)
t_y0_82                                             1 	(obj:1)
t_y0_173                                            1 	(obj:1)
t_y0_107                                            1 	(obj:1)
